978218
91,83,72,21,42,18,11,16,25,93,39,28,78,50,77,24,94,46,56,32,8,59,30,61,9,55,17,68,74,5,40,76,29,95,20,19,31,69,0,44,85,80,64,51,23,58,89,33,70,53,97,22,10,27,45,66,60,57,81,15,14,82,75,37,35,71,43,54,48,92,62,12,73,36,47,79,67,98,87,49,34,41,96,90,52,7,88,84,2,4,63,1,26,86,3,65,6,13,38,91